NAME = SAfile175,
TOURSIZE = 175,
LENGTH = 21460,
122,18,33,164,126,165,22,121,107,12,27,1,131,101,127,13,108,75,7,74,113,38,37,47,161,136,97,44,82,157,172,32,80,144,102,123,167,103,50,105,159,64,53,170,92,48,114,31,69,93,19,120,39,5,26,72,118,49,148,89,46,119,171,139,25,62,15,9,116,133,29,68,87,154,166,45,83,110,17,137,2,146,16,6,42,58,160,100,65,23,168,28,169,147,150,14,117,35,163,67,98,79,156,61,40,51,106,55,129,125,155,57,8,124,175,60,142,3,30,56,86,76,111,90,158,94,135,88,152,141,54,95,143,130,63,145,96,78,34,162,174,4,109,20,43,115,52,138,153,140,99,132,36,21,41,134,91,71,81,112,104,151,84,85,70,149,24,173,11,59,128,66,73,77,10